32      4       
12      19      18      16      
0       0       0       0       0       2       2       3       
8       0       0       1       5       3       4       5       6       
3       0       0       1       1       3       5       6       7       
9       0       5       1       0       3       7       9       13      
6       0       0       8       1       7       9       11      12      13      15      19      23      
3       1       4       0       0       5       8       14      19      20      24      
1       6       0       6       0       11      10      11      12      14      15      18      19      21      22      23      24      
4       0       4       0       1       10      10      11      12      13      15      16      17      21      22      23      
7       4       1       0       0       8       10      14      16      17      18      20      21      24      
6       0       1       6       0       5       25      26      27      28      31      
5       0       1       2       0       5       25      26      27      28      31      
10      0       5       7       0       5       25      26      27      28      31      
9       0       5       12      0       5       25      26      27      28      31      
1       0       0       5       7       4       26      27      28      31      
10      4       0       0       2       4       25      26      27      28      
3       1       0       0       6       4       25      26      28      31      
4       4       0       0       7       4       25      26      27      28      
3       1       6       0       0       4       25      26      28      31      
6       1       2       0       0       4       26      27      30      31      
8       4       0       0       3       4       26      27      30      31      
8       0       12      0       6       3       25      26      27      
6       0       7       5       0       3       25      26      27      
2       3       0       1       0       2       26      28      
9       0       2       0       1       2       25      27      
4       0       0       2       6       2       29      30      
5       5       10      0       0       1       29      
4       5       0       0       7       1       29      
1       4       0       0       6       1       30      
10      1       6       0       0       1       32      
1       0       0       9       1       1       32      
10      1       0       2       0       1       32      
0       0       0       0       0       0       
